n_res = 2;
rcap = [17, 14];
rtype = [1, 1];
n_tasks = 10;
modes = [ {1, 2, 3}, {4, 5, 6}, {7, 8, 9}, {10, 11, 12}, {13, 14, 15}, {16, 17, 18}, {19, 20, 21}, {22, 23, 24}, {25, 26, 27}, {28, 29, 30} ];
succ = [ {4, 5}, {5, 8}, {6, 7, 8}, {6, 7, 8}, {6, 7}, {9, 10}, {9, 10}, {}, {}, {} ];
n_opt = 30;
dur = [7, 10, 10, 4, 9, 9, 1, 2, 5, 2, 4, 7, 2, 4, 4, 3, 9, 10, 1, 3, 9, 1, 4, 6, 5, 5, 9, 3, 5, 9];
rreq = [|  7,  7,  5,  8,  7,  6,  9,  8,  8,  4,  3,  2,  4,  3,  4,  5,  5,  4, 10,  9,  8, 10,  9,  9,  5,  6,  3, 10,  9,  9
        |  5,  3,  5,  4,  1,  2,  8,  6,  5,  6,  5,  3,  4,  4,  3,  9,  8,  7,  6,  6,  6,  5,  3,  2,  4,  3,  1,  9,  6,  3 |];
